unsat
((set-logic NIA)
(declare-fun n!0 () Int)
(declare-fun c!3 () Int)
(declare-fun k!2 () Int)
(declare-fun m!1 () Int)
(proof
(let ((?x171 (* 2 n!0)))
 (let ((?x116 (* (- 3) c!3)))
 (let ((?x573 (* (- 1) k!2)))
 (let ((?x537 (* k!2 n!0)))
 (let ((?x752 (+ ?x537 ?x573 ?x116 ?x171)))
 (let (($x777 (<= ?x752 0)))
 (let (($x751 (= ?x752 0)))
 (let ((?x697 (* 9 n!0)))
 (let ((?x366 (* (- 27) c!3)))
 (let ((?x272 (* (- 32) k!2)))
 (let ((?x950 (* m!1 m!1)))
 (let ((?x692 (* (- 5) m!1)))
 (let ((?x460 (* (- 9) ?x537)))
 (let ((?x400 (* c!3 n!0)))
 (let ((?x157 (* (- 9) ?x400)))
 (let ((?x360 (* k!2 k!2)))
 (let ((?x173 (* m!1 k!2)))
 (let ((?x805 (* 2 ?x173)))
 (let ((?x975 (* 54 (* k!2 k!2 k!2))))
 (let ((?x961 (* 4 c!3)))
 (let ((?x858 (* 4 k!2)))
 (let ((?x988 (* 42 ?x950)))
 (let ((?x941 (* 54 (* k!2 k!2 k!2 n!0))))
 (let ((?x935 (* 50 ?x360)))
 (let ((?x148 (* 42 (* m!1 m!1 n!0))))
 (let ((?x140 (* 7 (* m!1 m!1 m!1))))
 (let ((?x228 (* 7 (* m!1 m!1 m!1 n!0))))
 (let ((?x185 (* 8 (* c!3 c!3))))
 (let ((?x446 (* 42 (* k!2 k!2 n!0))))
 (let ((?x496 (+ (* 61 (* m!1 k!2 k!2)) (* 108 (* k!2 k!2 c!3 n!0)) (* 84 (* m!1 k!2 n!0)) ?x446 (* 9 (* m!1 m!1 k!2 k!2 n!0)) (* 84 ?x173) (* 54 (* k!2 c!3 c!3)) (* 18 (* m!1 m!1 k!2 c!3)) (* 9 (* m!1 m!1 k!2 k!2)) (* 9 (* m!1 m!1 c!3 c!3)) (* 54 (* m!1 c!3 c!3)) (* 108 (* m!1 k!2 c!3)) ?x185 ?x228 ?x140 ?x148 (* 18 (* m!1 k!2 k!2 c!3 n!0)) ?x935 (* 9 (* m!1 k!2 c!3 c!3 n!0)) (* 54 (* k!2 c!3 c!3 n!0)) (* 18 (* m!1 k!2 k!2 c!3)) (* 9 (* m!1 k!2 c!3 c!3)) (* 9 (* m!1 k!2 k!2 k!2)) (* 14 (* m!1 m!1 k!2 n!0)) (* 18 (* m!1 m!1 k!2 c!3 n!0)) (* 61 (* m!1 k!2 k!2 n!0)) (* 9 (* m!1 k!2 k!2 k!2 n!0)) (* 9 (* m!1 m!1 c!3 c!3 n!0)) (* 16 (* k!2 c!3)) (* 14 (* m!1 m!1 k!2)) (* 54 (* m!1 c!3 c!3 n!0)) (* 108 (* k!2 k!2 c!3)) (* 108 (* m!1 k!2 c!3 n!0)) ?x941 ?x988 ?x858 ?x961 ?x975)))
 (let (($x349 (= (* ?x496 (+ 13 ?x805 ?x360 ?x157 ?x460 ?x692 ?x950 ?x272 ?x366 ?x697)) 0)))
 (let ((?x559 (+ m!1 (* (- 6) n!0))))
 (let (($x407 (= ?x559 6)))
 (let (($x202 (not $x407)))
 (let (($x187 (not (= (+ (* 3 (* n!0 n!0)) (* (- 1) m!1) ?x573 ?x697) (- 6)))))
 (let (($x155 (or $x187 $x202 (not (= (+ ?x805 ?x360 ?x157 ?x460 ?x692 ?x950 ?x272 ?x366 ?x697) (- 13))) (not $x349) (not (= (+ ?x537 (* (- 3) k!2) ?x116 ?x171 (* m!1 n!0)) (- 2))))))
 (let ((?x563 (* n!0 n!0)))
 (let ((?x778 (* 3 ?x563)))
 (let ((?x782 (+ ?x778 ?x573 (* 3 n!0))))
 (let (($x784 (= ?x782 0)))
 (let ((?x764 (+ ?x360 ?x157 (* (- 5) k!2) (* (- 18) c!3) ?x697)))
 (let (($x516 (= ?x764 (- 4))))
 (let (($x801 (and $x407 $x516 $x751 $x784 $x155)))
 (let ((?x700 (+ 13 ?x366 ?x272 ?x692 ?x697 ?x360 ?x460 ?x157 (* 2 (* k!2 m!1)) ?x950)))
 (let ((?x149 (+ ?x961 ?x858 ?x935 (* 54 (* c!3 c!3 m!1 n!0)) (* 108 (* c!3 k!2 k!2)) (* 54 (* c!3 c!3 k!2)) (* 108 (* c!3 k!2 m!1 n!0)) (* 9 (* c!3 c!3 m!1 m!1)) (* 108 (* c!3 k!2 k!2 n!0)) ?x975 ?x941 (* 9 (* k!2 k!2 k!2 m!1)) (* 18 (* c!3 k!2 k!2 m!1)) (* 54 (* c!3 c!3 k!2 n!0)) (* 9 (* c!3 c!3 k!2 m!1)) (* 18 (* c!3 k!2 m!1 m!1)) (* 9 (* k!2 k!2 m!1 m!1)) (* 84 (* k!2 m!1)) ?x988 (* 9 (* c!3 c!3 k!2 m!1 n!0)) (* 18 (* c!3 k!2 k!2 m!1 n!0)) (* 9 (* k!2 k!2 k!2 m!1 n!0)) (* 9 (* c!3 c!3 m!1 m!1 n!0)) (* 18 (* c!3 k!2 m!1 m!1 n!0)) (* 9 (* k!2 k!2 m!1 m!1 n!0)) ?x185 (* 16 (* c!3 k!2)) (* 61 (* k!2 k!2 m!1 n!0)) (* 14 (* k!2 m!1 m!1 n!0)) ?x228 (* 54 (* c!3 c!3 m!1)) (* 108 (* c!3 k!2 m!1)) (* 61 (* k!2 k!2 m!1)) ?x140 ?x446 (* 84 (* k!2 m!1 n!0)) (* 14 (* k!2 m!1 m!1)) ?x148)))
 (let ((?x528 (* (- 1) ?x537)))
 (let ((?x553 (* (- 2) n!0)))
 (let ((?x280 (* 3 c!3)))
 (let (($x934 (= (+ ?x280 (* 3 k!2) ?x553 ?x528 (* (- 1) (* m!1 n!0))) 2)))
 (let ((?x186 (* 9 ?x400)))
 (let ((?x550 (* (- 1) ?x360)))
 (let ((?x379 (* (- 9) n!0)))
 (let ((?x850 (+ (* 27 c!3) (* 32 k!2) (* 5 m!1) ?x379 ?x550 (* 9 ?x537) ?x186 (* (- 2) (* k!2 m!1)) (* (- 1) ?x950))))
 (let (($x735 (or (not (= (+ k!2 m!1 ?x379 (* (- 3) ?x563)) 6)) $x202 (not (= ?x850 13)) (not $x934) (not (= (* ?x149 ?x700) 0)))))
 (let (($x736 (and $x407 (= (+ (* 18 c!3) (* 5 k!2) ?x379 ?x550 ?x186) 4) (= (+ ?x280 k!2 ?x553 ?x528) 0) (= (+ k!2 (* (- 3) n!0) (* (- 3) ?x563)) 0) $x735)))
 (let (($x396 (exists ((c Int) (k Int) (m Int) (n Int) )(! (let ((?x489 (* m m)))
 (let ((?x46 (* k k)))
 (let ((?x45 (* 9 n)))
 (let ((?x455 (* (- 5) m)))
 (let ((?x510 (+ 13 (* (- 27) c) (* (- 32) k) ?x455 ?x45 ?x46 (* (- 9) (* k n)) (* (- 9) (* c n)) (* 2 (* k m)) ?x489)))
 (let ((?x732 (* 7 (* m m m n))))
 (let ((?x684 (* 8 (* c c))))
 (let ((?x672 (* 9 (* k k m m n))))
 (let ((?x666 (* 9 (* c c m m n))))
 (let ((?x664 (* 9 (* k k k m n))))
 (let ((?x658 (* 9 (* c c k m n))))
 (let ((?x679 (* 4 k)))
 (let ((?x678 (* 4 c)))
 (let ((?x1001 (+ ?x678 ?x679 (* 50 ?x46) (* 54 (* c c m n)) (* 108 (* c k k)) (* 54 (* c c k)) (* 108 (* c k m n)) (* 9 (* c c m m)) (* 108 (* c k k n)) (* 54 (* k k k)) (* 54 (* k k k n)) (* 9 (* k k k m)) (* 18 (* c k k m)) (* 54 (* c c k n)) (* 9 (* c c k m)) (* 18 (* c k m m)) (* 9 (* k k m m)) (* 84 (* k m)) (* 42 ?x489) ?x658 (* 18 (* c k k m n)) ?x664 ?x666 (* 18 (* c k m m n)) ?x672 ?x684 (* 16 (* c k)) (* 61 (* k k m n)) (* 14 (* k m m n)) ?x732 (* 54 (* c c m)) (* 108 (* c k m)) (* 61 (* k k m)) (* 7 (* m m m)) (* 42 (* k k n)) (* 84 (* k m n)) (* 14 (* k m m)) (* 42 (* m m n)))))
 (let ((?x52 (* k n)))
 (let ((?x266 (* (- 1) ?x52)))
 (let ((?x265 (* (- 2) n)))
 (let ((?x263 (* 3 c)))
 (let (($x609 (= (+ ?x263 (* 3 k) ?x265 ?x266 (* (- 1) (* m n))) 2)))
 (let (($x617 (not $x609)))
 (let ((?x161 (* c n)))
 (let ((?x163 (* 9 ?x161)))
 (let ((?x226 (* (- 1) ?x46)))
 (let ((?x225 (* (- 9) n)))
 (let ((?x438 (* 5 m)))
 (let ((?x526 (+ (* 27 c) (* 32 k) ?x438 ?x225 ?x226 (* 9 ?x52) ?x163 (* (- 2) (* k m)) (* (- 1) ?x489))))
 (let (($x530 (not (= ?x526 13))))
 (let (($x146 (= (+ m (* (- 6) n)) 6)))
 (let (($x364 (not $x146)))
 (let (($x1021 (or (not (= (+ k m ?x225 (* (- 3) (* n n))) 6)) $x364 $x530 $x617 (not (= (* ?x1001 ?x510) 0)))))
 (let (($x304 (= (+ k (* (- 3) n) (* (- 3) (* n n))) 0)))
 (let (($x268 (= (+ ?x263 k ?x265 ?x266) 0)))
 (let (($x223 (= (+ (* 18 c) (* 5 k) ?x225 ?x226 ?x163) 4)))
 (and $x146 $x223 $x268 $x304 $x1021)))))))))))))))))))))))))))))))))) :qid k!38))
 ))
 (let (($x546 (exists ((c Int) (k Int) (m Int) (n Int) )(! (let ((?x74 (+ k m)))
 (let ((?x80 (* ?x74 ?x74)))
 (let ((?x45 (* 9 n)))
 (let ((?x455 (* (- 5) m)))
 (let ((?x71 (+ c k)))
 (let ((?x579 (+ 1 n)))
 (let ((?x423 (* ?x579 ?x71)))
 (let ((?x247 (* (- 9) ?x423)))
 (let ((?x557 (* (- 23) k)))
 (let ((?x470 (* (- 18) c)))
 (let ((?x679 (* 4 k)))
 (let ((?x678 (* 4 c)))
 (let ((?x238 (+ (* 9 (* ?x579 (+ 6 m) ?x74 ?x71 ?x71)) ?x678 ?x679 (* 8 (* ?x71 ?x71)) (* 7 (* ?x579 (+ 6 m) ?x74 ?x74)))))
 (let (($x444 (not (= (* ?x238 (+ 13 ?x470 ?x557 ?x247 ?x455 ?x45 ?x80)) 0))))
 (let (($x146 (= (+ m (* (- 6) n)) 6)))
 (let (($x364 (not $x146)))
 (let ((?x265 (* (- 2) n)))
 (let ((?x263 (* 3 c)))
 (let ((?x225 (* (- 9) n)))
 (let ((?x438 (* 5 m)))
 (let ((?x37 (* 18 c)))
 (let (($x507 (= (+ ?x37 (* 23 k) (* 9 ?x423) ?x438 ?x225 (* (- 1) ?x80)) 13)))
 (let ((?x61 (* 3 n)))
 (let ((?x233 (* (- 1) m)))
 (let ((?x555 (* (- 1) k)))
 (let (($x257 (not (= (+ (* 3 (* ?x579 ?x579)) ?x555 ?x233 ?x61) (- 3)))))
 (let (($x424 (or $x257 (not $x507) (not (= (+ ?x263 ?x679 (* (- 1) (* ?x579 ?x74)) m ?x265) 2)) $x364 $x444)))
 (let (($x344 (= (+ (* 3 (* n n)) ?x555 ?x61) 0)))
 (let ((?x46 (* k k)))
 (let ((?x226 (* (- 1) ?x46)))
 (let ((?x41 (* 5 k)))
 (and $x146 (= (+ ?x37 (* 9 (* n c)) ?x41 ?x225 ?x226) 4) (= (+ ?x263 (* (- 1) (* n k)) k ?x265) 0) $x344 $x424)))))))))))))))))))))))))))))))) :qid k!38))
 ))
 (let ((?x327 (lambda ((c Int) (k Int) (m Int) (n Int) )(let ((?x489 (* m m)))
 (let ((?x46 (* k k)))
 (let ((?x45 (* 9 n)))
 (let ((?x455 (* (- 5) m)))
 (let ((?x510 (+ 13 (* (- 27) c) (* (- 32) k) ?x455 ?x45 ?x46 (* (- 9) (* k n)) (* (- 9) (* c n)) (* 2 (* k m)) ?x489)))
 (let ((?x732 (* 7 (* m m m n))))
 (let ((?x684 (* 8 (* c c))))
 (let ((?x672 (* 9 (* k k m m n))))
 (let ((?x666 (* 9 (* c c m m n))))
 (let ((?x664 (* 9 (* k k k m n))))
 (let ((?x658 (* 9 (* c c k m n))))
 (let ((?x679 (* 4 k)))
 (let ((?x678 (* 4 c)))
 (let ((?x1001 (+ ?x678 ?x679 (* 50 ?x46) (* 54 (* c c m n)) (* 108 (* c k k)) (* 54 (* c c k)) (* 108 (* c k m n)) (* 9 (* c c m m)) (* 108 (* c k k n)) (* 54 (* k k k)) (* 54 (* k k k n)) (* 9 (* k k k m)) (* 18 (* c k k m)) (* 54 (* c c k n)) (* 9 (* c c k m)) (* 18 (* c k m m)) (* 9 (* k k m m)) (* 84 (* k m)) (* 42 ?x489) ?x658 (* 18 (* c k k m n)) ?x664 ?x666 (* 18 (* c k m m n)) ?x672 ?x684 (* 16 (* c k)) (* 61 (* k k m n)) (* 14 (* k m m n)) ?x732 (* 54 (* c c m)) (* 108 (* c k m)) (* 61 (* k k m)) (* 7 (* m m m)) (* 42 (* k k n)) (* 84 (* k m n)) (* 14 (* k m m)) (* 42 (* m m n)))))
 (let ((?x52 (* k n)))
 (let ((?x266 (* (- 1) ?x52)))
 (let ((?x265 (* (- 2) n)))
 (let ((?x263 (* 3 c)))
 (let (($x609 (= (+ ?x263 (* 3 k) ?x265 ?x266 (* (- 1) (* m n))) 2)))
 (let (($x617 (not $x609)))
 (let ((?x161 (* c n)))
 (let ((?x163 (* 9 ?x161)))
 (let ((?x226 (* (- 1) ?x46)))
 (let ((?x225 (* (- 9) n)))
 (let ((?x438 (* 5 m)))
 (let ((?x526 (+ (* 27 c) (* 32 k) ?x438 ?x225 ?x226 (* 9 ?x52) ?x163 (* (- 2) (* k m)) (* (- 1) ?x489))))
 (let (($x530 (not (= ?x526 13))))
 (let (($x146 (= (+ m (* (- 6) n)) 6)))
 (let (($x364 (not $x146)))
 (let (($x1021 (or (not (= (+ k m ?x225 (* (- 3) (* n n))) 6)) $x364 $x530 $x617 (not (= (* ?x1001 ?x510) 0)))))
 (let (($x304 (= (+ k (* (- 3) n) (* (- 3) (* n n))) 0)))
 (let (($x268 (= (+ ?x263 k ?x265 ?x266) 0)))
 (let (($x223 (= (+ (* 18 c) (* 5 k) ?x225 ?x226 ?x163) 4)))
 (let (($x240 (and $x146 $x223 $x268 $x304 $x1021)))
 (let ((?x74 (+ k m)))
 (let ((?x80 (* ?x74 ?x74)))
 (let ((?x71 (+ c k)))
 (let ((?x579 (+ 1 n)))
 (let ((?x423 (* ?x579 ?x71)))
 (let ((?x247 (* (- 9) ?x423)))
 (let ((?x557 (* (- 23) k)))
 (let ((?x470 (* (- 18) c)))
 (let ((?x238 (+ (* 9 (* ?x579 (+ 6 m) ?x74 ?x71 ?x71)) ?x678 ?x679 (* 8 (* ?x71 ?x71)) (* 7 (* ?x579 (+ 6 m) ?x74 ?x74)))))
 (let (($x444 (not (= (* ?x238 (+ 13 ?x470 ?x557 ?x247 ?x455 ?x45 ?x80)) 0))))
 (let ((?x37 (* 18 c)))
 (let (($x507 (= (+ ?x37 (* 23 k) (* 9 ?x423) ?x438 ?x225 (* (- 1) ?x80)) 13)))
 (let ((?x61 (* 3 n)))
 (let ((?x233 (* (- 1) m)))
 (let ((?x555 (* (- 1) k)))
 (let (($x257 (not (= (+ (* 3 (* ?x579 ?x579)) ?x555 ?x233 ?x61) (- 3)))))
 (let (($x424 (or $x257 (not $x507) (not (= (+ ?x263 ?x679 (* (- 1) (* ?x579 ?x74)) m ?x265) 2)) $x364 $x444)))
 (let (($x344 (= (+ (* 3 (* n n)) ?x555 ?x61) 0)))
 (let (($x295 (= (+ ?x37 (* 9 (* n c)) (* 5 k) ?x225 ?x226) 4)))
 (let (($x458 (and $x146 $x295 (= (+ ?x263 (* (- 1) (* n k)) k ?x265) 0) $x344 $x424)))
 (rewrite (= $x458 $x240)))))))))))))))))))))))))))))))))))))))))))))))))))))))))
 ))
 (let (($x412 (exists ((c Int) (k Int) (m Int) (n Int) )(! (let ((?x74 (+ k m)))
 (let ((?x80 (* ?x74 ?x74)))
 (let ((?x45 (* 9 n)))
 (let ((?x455 (* (- 5) m)))
 (let ((?x71 (+ c k)))
 (let ((?x579 (+ 1 n)))
 (let ((?x423 (* ?x579 ?x71)))
 (let ((?x247 (* (- 9) ?x423)))
 (let ((?x557 (* (- 23) k)))
 (let ((?x470 (* (- 18) c)))
 (let ((?x679 (* 4 k)))
 (let ((?x678 (* 4 c)))
 (let ((?x238 (+ (* 9 (* ?x579 (+ 6 m) ?x74 ?x71 ?x71)) ?x678 ?x679 (* 8 (* ?x71 ?x71)) (* 7 (* ?x579 (+ 6 m) ?x74 ?x74)))))
 (let (($x444 (not (= (* ?x238 (+ 13 ?x470 ?x557 ?x247 ?x455 ?x45 ?x80)) 0))))
 (let (($x146 (= (+ m (* (- 6) n)) 6)))
 (let (($x364 (not $x146)))
 (let ((?x61 (* 3 n)))
 (let ((?x233 (* (- 1) m)))
 (let ((?x555 (* (- 1) k)))
 (let (($x257 (not (= (+ (* 3 (* ?x579 ?x579)) ?x555 ?x233 ?x61) (- 3)))))
 (let ((?x56 (* 2 n)))
 (let ((?x472 (* ?x579 ?x74)))
 (let ((?x503 (* (- 3) c)))
 (let (($x474 (or (not (= (+ ?x503 (* (- 4) k) ?x472 ?x233 ?x56) (- 2))) $x257 $x364 (not (= (+ ?x470 ?x557 ?x247 ?x455 ?x45 ?x80) (- 13))) $x444)))
 (let (($x344 (= (+ (* 3 (* n n)) ?x555 ?x61) 0)))
 (let (($x495 (= (+ ?x470 (* (- 9) (* n c)) (* (- 5) k) ?x45 (* k k)) (- 4))))
 (and $x146 $x495 (= (+ ?x503 (* n k) ?x555 ?x56) 0) $x344 $x474))))))))))))))))))))))))))) :qid k!38))
 ))
 (let ((?x381 (lambda ((c Int) (k Int) (m Int) (n Int) )(let ((?x74 (+ k m)))
 (let ((?x80 (* ?x74 ?x74)))
 (let ((?x45 (* 9 n)))
 (let ((?x455 (* (- 5) m)))
 (let ((?x71 (+ c k)))
 (let ((?x579 (+ 1 n)))
 (let ((?x423 (* ?x579 ?x71)))
 (let ((?x247 (* (- 9) ?x423)))
 (let ((?x557 (* (- 23) k)))
 (let ((?x470 (* (- 18) c)))
 (let ((?x679 (* 4 k)))
 (let ((?x678 (* 4 c)))
 (let ((?x238 (+ (* 9 (* ?x579 (+ 6 m) ?x74 ?x71 ?x71)) ?x678 ?x679 (* 8 (* ?x71 ?x71)) (* 7 (* ?x579 (+ 6 m) ?x74 ?x74)))))
 (let (($x444 (not (= (* ?x238 (+ 13 ?x470 ?x557 ?x247 ?x455 ?x45 ?x80)) 0))))
 (let (($x146 (= (+ m (* (- 6) n)) 6)))
 (let (($x364 (not $x146)))
 (let ((?x265 (* (- 2) n)))
 (let ((?x263 (* 3 c)))
 (let ((?x225 (* (- 9) n)))
 (let ((?x438 (* 5 m)))
 (let ((?x37 (* 18 c)))
 (let (($x507 (= (+ ?x37 (* 23 k) (* 9 ?x423) ?x438 ?x225 (* (- 1) ?x80)) 13)))
 (let ((?x61 (* 3 n)))
 (let ((?x233 (* (- 1) m)))
 (let ((?x555 (* (- 1) k)))
 (let (($x257 (not (= (+ (* 3 (* ?x579 ?x579)) ?x555 ?x233 ?x61) (- 3)))))
 (let (($x424 (or $x257 (not $x507) (not (= (+ ?x263 ?x679 (* (- 1) (* ?x579 ?x74)) m ?x265) 2)) $x364 $x444)))
 (let (($x344 (= (+ (* 3 (* n n)) ?x555 ?x61) 0)))
 (let ((?x46 (* k k)))
 (let ((?x226 (* (- 1) ?x46)))
 (let ((?x41 (* 5 k)))
 (let (($x458 (and $x146 (= (+ ?x37 (* 9 (* n c)) ?x41 ?x225 ?x226) 4) (= (+ ?x263 (* (- 1) (* n k)) k ?x265) 0) $x344 $x424)))
 (let ((?x56 (* 2 n)))
 (let ((?x472 (* ?x579 ?x74)))
 (let ((?x503 (* (- 3) c)))
 (let (($x474 (or (not (= (+ ?x503 (* (- 4) k) ?x472 ?x233 ?x56) (- 2))) $x257 $x364 (not (= (+ ?x470 ?x557 ?x247 ?x455 ?x45 ?x80) (- 13))) $x444)))
 (let (($x495 (= (+ ?x470 (* (- 9) (* n c)) (* (- 5) k) ?x45 ?x46) (- 4))))
 (let (($x277 (and $x146 $x495 (= (+ ?x503 (* n k) ?x555 ?x56) 0) $x344 $x474)))
 (rewrite (= $x277 $x458)))))))))))))))))))))))))))))))))))))))))
 ))
 (let (($x111 (exists ((c Int) (k Int) (m Int) (n Int) )(! (let ((?x66 (+ n 1)))
 (let ((?x98 (+ m 6)))
 (let ((?x74 (+ k m)))
 (let ((?x105 (+ (* 9 (+ c k) (+ c k) ?x74 ?x98 ?x66) (* 4 (+ c k)) (* 8 (+ c k) (+ c k)) (* 7 ?x74 ?x74 ?x98 ?x66))))
 (let ((?x80 (* ?x74 ?x74)))
 (let ((?x78 (- (- (- 4 (* 18 (+ c k))) (* 9 (+ c k) ?x66)) (* 5 ?x74))))
 (let ((?x81 (+ ?x78 (* 9 ?x66) ?x80)))
 (let ((?x89 (+ (- (+ (* (- 3) (+ c k)) (* ?x74 ?x66)) ?x74) (* 2 ?x66))))
 (let (($x109 (or (not (= (- (+ (- 6) m 6) (* 6 ?x66)) 0)) (not (= ?x81 0)) (not (= ?x89 0)) (not (= (+ (- (* 3 ?x66 ?x66) ?x74) (* 3 ?x66)) 0)) (not (= (* ?x81 ?x105) 0)))))
 (let (($x58 (= (+ (- (+ (* (- 3) c) (* k n)) k) (* 2 n)) 0)))
 (let ((?x46 (* k k)))
 (let ((?x45 (* 9 n)))
 (let ((?x41 (* 5 k)))
 (let ((?x47 (+ (- (- (- 4 (* 18 c)) (* 9 c n)) ?x41) ?x45 ?x46)))
 (and (= (- (+ (- 6) m) (* 6 n)) 0) (= ?x47 0) $x58 (= (+ (- (* 3 n n) k) (* 3 n)) 0) $x109))))))))))))))) :qid k!38))
 ))
 (let ((?x414 (lambda ((c Int) (k Int) (m Int) (n Int) )(let ((?x74 (+ k m)))
 (let ((?x80 (* ?x74 ?x74)))
 (let ((?x45 (* 9 n)))
 (let ((?x455 (* (- 5) m)))
 (let ((?x71 (+ c k)))
 (let ((?x579 (+ 1 n)))
 (let ((?x423 (* ?x579 ?x71)))
 (let ((?x247 (* (- 9) ?x423)))
 (let ((?x557 (* (- 23) k)))
 (let ((?x470 (* (- 18) c)))
 (let ((?x679 (* 4 k)))
 (let ((?x678 (* 4 c)))
 (let ((?x238 (+ (* 9 (* ?x579 (+ 6 m) ?x74 ?x71 ?x71)) ?x678 ?x679 (* 8 (* ?x71 ?x71)) (* 7 (* ?x579 (+ 6 m) ?x74 ?x74)))))
 (let (($x444 (not (= (* ?x238 (+ 13 ?x470 ?x557 ?x247 ?x455 ?x45 ?x80)) 0))))
 (let (($x146 (= (+ m (* (- 6) n)) 6)))
 (let (($x364 (not $x146)))
 (let ((?x61 (* 3 n)))
 (let ((?x233 (* (- 1) m)))
 (let ((?x555 (* (- 1) k)))
 (let (($x257 (not (= (+ (* 3 (* ?x579 ?x579)) ?x555 ?x233 ?x61) (- 3)))))
 (let ((?x56 (* 2 n)))
 (let ((?x472 (* ?x579 ?x74)))
 (let ((?x503 (* (- 3) c)))
 (let (($x474 (or (not (= (+ ?x503 (* (- 4) k) ?x472 ?x233 ?x56) (- 2))) $x257 $x364 (not (= (+ ?x470 ?x557 ?x247 ?x455 ?x45 ?x80) (- 13))) $x444)))
 (let (($x344 (= (+ (* 3 (* n n)) ?x555 ?x61) 0)))
 (let (($x495 (= (+ ?x470 (* (- 9) (* n c)) (* (- 5) k) ?x45 (* k k)) (- 4))))
 (let (($x277 (and $x146 $x495 (= (+ ?x503 (* n k) ?x555 ?x56) 0) $x344 $x474)))
 (let ((?x105 (+ (* 9 ?x71 ?x71 ?x74 (+ m 6) (+ n 1)) (* 4 ?x71) (* 8 ?x71 ?x71) (* 7 ?x74 ?x74 (+ m 6) (+ n 1)))))
 (let ((?x78 (- (- (- 4 (* 18 ?x71)) (* 9 ?x71 (+ n 1))) (* 5 ?x74))))
 (let ((?x81 (+ ?x78 (* 9 (+ n 1)) ?x80)))
 (let ((?x95 (+ (- (* 3 (+ n 1) (+ n 1)) ?x74) (* 3 (+ n 1)))))
 (let ((?x89 (+ (- (+ (* (- 3) ?x71) (* ?x74 (+ n 1))) ?x74) (* 2 (+ n 1)))))
 (let (($x70 (not (= (- (+ (- 6) m 6) (* 6 (+ n 1))) 0))))
 (let (($x109 (or $x70 (not (= ?x81 0)) (not (= ?x89 0)) (not (= ?x95 0)) (not (= (* ?x81 ?x105) 0)))))
 (let ((?x46 (* k k)))
 (let ((?x41 (* 5 k)))
 (let ((?x47 (+ (- (- (- 4 (* 18 c)) (* 9 c n)) ?x41) ?x45 ?x46)))
 (let (($x110 (and (= (- (+ (- 6) m) (* 6 n)) 0) (= ?x47 0) (= (+ (- (+ (* (- 3) c) (* k n)) k) ?x56) 0) (= (+ (- (* 3 n n) k) ?x61) 0) $x109)))
 (rewrite (= $x110 $x277)))))))))))))))))))))))))))))))))))))))))
 ))
 (let ((@x112 (asserted $x111)))
 (let ((@x477 (mp (mp @x112 (quant-intro (proof-bind ?x414) (= $x111 $x412)) $x412) (rewrite (= $x412 $x412)) $x412)))
 (let ((@x437 (mp (mp @x477 (quant-intro (proof-bind ?x381) (= $x412 $x546)) $x546) (quant-intro (proof-bind ?x327) (= $x546 $x396)) $x396)))
 (let ((@x799 (mp (mp~ @x437 (sk (~ $x396 $x736)) $x736) (rewrite (= $x736 $x801)) $x801)))
 (let ((@x134 (and-elim @x799 $x751)))
 (let ((@x306 (unit-resolution ((_ th-lemma arith triangle-eq) (or (not $x751) $x777)) @x134 $x777)))
 (let (($x172 (>= ?x752 0)))
 (let ((@x390 (unit-resolution ((_ th-lemma arith triangle-eq) (or (not $x751) $x172)) @x134 $x172)))
 (let (($x574 (<= ?x782 0)))
 (let ((@x810 (and-elim @x799 $x784)))
 (let ((@x757 (unit-resolution ((_ th-lemma arith triangle-eq) (or (not $x784) $x574)) @x810 $x574)))
 (let (($x578 (>= ?x782 0)))
 (let ((@x755 (unit-resolution ((_ th-lemma arith triangle-eq) (or (not $x784) $x578)) @x810 $x578)))
 (let (($x785 (<= ?x764 (- 4))))
 (let ((@x209 (and-elim @x799 $x516)))
 (let ((@x565 (unit-resolution ((_ th-lemma arith triangle-eq) (or (not $x516) $x785)) @x209 $x785)))
 (let (($x783 (>= ?x764 (- 4))))
 (let ((@x135 (unit-resolution ((_ th-lemma arith triangle-eq) (or (not $x516) $x783)) @x209 $x783)))
 (let (($x598 (<= ?x559 6)))
 (let ((@x131 (and-elim @x799 $x407)))
 (let ((@x772 (unit-resolution ((_ th-lemma arith triangle-eq) (or $x202 $x598)) @x131 $x598)))
 (let (($x596 (>= ?x559 6)))
 (let ((@x745 (unit-resolution ((_ th-lemma arith triangle-eq) (or $x202 $x596)) @x131 $x596)))
 (let (($x1355 (<= m!1 12)))
 (let ((@x1428 (hypothesis $x1355)))
 (let (($x1356 (<= c!3 1)))
 (let ((@x1250 (hypothesis $x1356)))
 (let (($x316 (>= c!3 0)))
 (let (($x168 (>= n!0 0)))
 (let ((@x160 (hypothesis (not $x168))))
 (let (($x289 (>= k!2 0)))
 (let ((@x762 (hypothesis (not $x289))))
 (let ((@x321 (unit-resolution (lemma ((_ th-lemma arith) @x160 @x762 @x160 @x755 @x757 false) (or $x168 $x289)) @x762 $x168)))
 (let ((@x311 (lemma ((_ th-lemma arith farkas 1/3 -1 1/3) @x762 @x321 @x757 false) $x289)))
 (let (($x1061 (<= m!1 0)))
 (let ((@x1204 (lemma ((_ th-lemma arith farkas -1 -6 1) @x772 @x160 (hypothesis (not $x1061)) false) (or $x1061 $x168))))
 (let (($x294 (>= m!1 0)))
 (let (($x1101 (>= m!1 (- 4))))
 (let (($x419 (>= ?x496 1)))
 (let ((@x204 ((_ th-lemma arith) (hypothesis (not $x419)) @x755 @x757 @x390 @x306 @x390 @x306 @x135 @x565 @x390 @x306 @x745 @x772 false)))
 (let ((@x1150 ((_ th-lemma arith) (lemma @x204 $x419) (hypothesis (not $x1101)) @x745 @x755 @x757 @x755 @x757 @x135 @x565 @x755 @x757 @x390 @x306 @x135 @x565 @x745 @x772 @x755 @x757 @x755 @x757 @x135 @x565 @x745 @x772 @x390 @x306 @x745 @x772 @x390 @x306 @x135 @x565 false)))
 (let ((@x926 (lemma ((_ th-lemma arith gcd-test -1/6 -1/6 1/6 1/6) (lemma @x1150 $x1101) (hypothesis (not $x294)) @x745 @x772 false) $x294)))
 (let (($x408 (>= ?x360 0)))
 (let ((@x434 (lemma ((_ th-lemma arith farkas 1) (hypothesis (not $x408)) false) $x408)))
 (let ((@x1269 ((_ th-lemma arith farkas -1 2 2 2 -2/3 1/3 -1/3 3 3 3 1/6 -1/6 1 1) @x390 @x160 @x926 @x772 @x755 @x565 @x434 @x926 @x772 @x160 (unit-resolution @x1204 @x160 $x1061) @x745 @x311 @x160 false)))
 (let ((@x1308 (lemma @x1269 $x168)))
 (let (($x421 (>= ?x400 1)))
 (let (($x1280 (<= m!1 6)))
 (let ((@x1278 (hypothesis (not $x421))))
 (let ((@x1219 (hypothesis (not $x1280))))
 (let ((@x1080 ((_ th-lemma arith) @x1219 @x772 @x1278 @x1219 @x772 @x755 @x757 @x135 @x565 @x755 @x757 @x135 @x565 @x390 @x306 @x135 @x565 @x135 @x565 @x755 @x757 @x390 @x306 false)))
 (let (($x1116 (>= ?x537 1)))
 (let (($x681 (>= ?x563 0)))
 (let ((@x769 (hypothesis (not $x681))))
 (let ((@x479 (lemma ((_ th-lemma arith farkas 1 1 1 1) @x769 @x769 @x311 @x755 false) $x681)))
 (let ((@x1267 ((_ th-lemma arith farkas 1/6 -1 1/6 -1/6 3/2 -1/2 1) @x757 @x390 @x565 @x434 @x1278 @x479 (hypothesis (not $x1116)) false)))
 (let ((@x1363 ((_ th-lemma arith farkas 1 1 1 1) (unit-resolution (lemma @x1267 (or $x1116 $x421)) @x1278 $x1116) @x1308 (unit-resolution (lemma @x1080 (or $x1280 $x421)) @x1278 $x1280) @x745 false)))
 (let ((@x1337 (lemma @x1363 $x421)))
 (let ((@x1401 ((_ th-lemma arith farkas 1 1 1) @x1337 (lemma ((_ th-lemma arith farkas 1 1 1) @x1337 (hypothesis (not $x316)) @x1308 false) $x316) (hypothesis (<= c!3 0)) false)))
 (let ((@x1389 (lemma @x1401 (not (<= c!3 0)))))
 (let ((@x1276 ((_ th-lemma arith) @x755 @x757 @x1389 @x1250 @x1389 @x1250 @x1389 @x1250 @x1389 @x1250 @x1389 @x1250 @x390 @x306 @x1389 @x1250 @x1389 @x1250 @x755 @x757 @x1389 @x1250 @x755 @x757 @x135 @x565 @x1389 @x1250 false)))
 (let ((@x1318 (lemma @x1276 (not $x1356))))
 (let ((@x1429 ((_ th-lemma arith farkas -3 -3 -3 -3 1 -1/2 1/2 1 1 1 1 1 1 1 1 1) @x1337 @x1318 @x1428 @x745 @x755 @x1428 @x745 @x479 @x757 @x1318 @x390 @x1337 @x1337 @x1318 @x1428 @x745 false)))
 ((_ th-lemma arith) (lemma @x1429 (not $x1355)) @x772 @x755 @x757 @x135 @x565 @x755 @x757 @x755 @x757 @x390 @x306 false))))))))))))))))))))))))))))))))))))))))))))))))))))))))))))))))))))))))))))))))))))))))))))))))))))))))))))))))))))))))))))))))

(:added-eqs                 98
 :arith-assert-diseq        42
 :arith-assert-lower        848
 :arith-assert-upper        559
 :arith-bound-prop          7
 :arith-branch-var          24
 :arith-conflicts           40
 :arith-eq-adapter          13
 :arith-fixed-eqs           152
 :arith-gcd-tests           171
 :arith-gomory-cuts         14
 :arith-grobner             33
 :arith-ineq-splits         24
 :arith-max-min             4980
 :arith-nonlinear-bounds    577
 :arith-nonlinear-horner    250
 :arith-num-rows            19
 :arith-offset-eqs          7
 :arith-patches             54
 :arith-patches_succ        6
 :arith-pivots              392
 :arith-pseudo-nonlinear    239
 :arith-row-summations      1396
 :arith-tableau-max-columns 96
 :arith-tableau-max-rows    19
 :conflicts                 46
 :decisions                 419
 :del-clause                91
 :final-checks              128
 :max-memory                4.17
 :memory                    3.31
 :minimized-lits            2
 :mk-bool-var               311
 :mk-clause                 100
 :num-allocs                4206492
 :num-checks                1
 :propagations              250
 :rlimit-count              175389
 :time                      0.07
 :total-time                0.08)
